p cnf 408 1048
c uncontrollable inputs:
a 1 3 6 8 9 0
c state variables:
a 12 13 14 15 16 17 18 19 20 21 22 23 24 25 26 27 28 29 30 31 32 33 34 0
c next state variables:
a 35 36 37 38 39 40 41 42 43 44 45 46 47 48 49 50 51 52 53 54 55 56 57 0
c controllable inputs
d 2 1 3 6 8 9 12 13 14 15 16 17 18 19 20 21 22 23 24 25 26 27 28 29 30 31 32 33 34 0
d 4 1 3 6 8 9 12 13 14 15 16 17 18 19 20 21 22 23 24 25 26 27 28 29 30 31 32 33 34 0
d 5 1 3 6 8 9 12 13 14 15 16 17 18 19 20 21 22 23 24 25 26 27 28 29 30 31 32 33 34 0
d 7 1 3 6 8 9 12 13 14 15 16 17 18 19 20 21 22 23 24 25 26 27 28 29 30 31 32 33 34 0
d 10 1 3 6 8 9 12 13 14 15 16 17 18 19 20 21 22 23 24 25 26 27 28 29 30 31 32 33 34 0
d 11 1 3 6 8 9 12 13 14 15 16 17 18 19 20 21 22 23 24 25 26 27 28 29 30 31 32 33 34 0
c winning region (state)
d 58 12 13 14 15 16 17 18 19 20 21 22 23 24 25 26 27 28 29 30 31 32 33 34 0
c winning region (next state)
d 59 35 36 37 38 39 40 41 42 43 44 45 46 47 48 49 50 51 52 53 54 55 56 57 0
c tseitin variables
e 60 61 62 63 64 65 66 67 68 69 70 71 72 73 74 75 76 77 78 79 80 81 82 83 84 85 86 87 88 89 90 91 92 93 94 95 96 97 98 99 100 101 102 103 104 105 106 107 108 109 110 111 112 113 114 115 116 117 118 119 120 121 122 123 124 125 126 127 128 129 130 131 132 133 134 135 136 137 138 139 140 141 142 143 144 145 146 147 148 149 150 151 152 153 154 155 156 157 158 159 160 161 162 163 164 165 166 167 168 169 170 171 172 173 174 175 176 177 178 179 180 181 182 183 184 185 186 187 188 189 190 191 192 193 194 195 196 197 198 199 200 201 202 203 204 205 206 207 208 209 210 211 212 213 214 215 216 217 218 219 220 221 222 223 224 225 226 227 228 229 230 231 232 233 234 235 236 237 238 239 240 241 242 243 244 245 246 247 248 249 250 251 252 253 254 255 256 257 258 259 260 261 262 263 264 265 266 267 268 269 270 271 272 273 274 275 276 277 278 279 280 281 282 283 284 285 286 287 288 289 290 291 292 293 294 295 296 297 298 299 300 301 302 303 304 305 306 307 308 309 310 311 312 313 314 315 316 317 318 319 320 321 322 323 324 325 326 327 328 329 330 331 332 333 334 335 336 337 338 339 340 341 342 343 344 345 346 347 348 349 350 351 352 353 354 355 356 357 358 359 360 361 362 363 364 365 366 367 368 369 370 371 372 373 374 375 376 377 378 379 380 381 382 383 384 385 386 387 388 389 390 391 392 393 394 395 396 397 398 399 400 401 402 403 404 405 406 407 408 0
c clauses:
-60 -51 0
-60 28 0
60 51 -28 0
-61 51 0
-61 -28 0
61 -51 28 0
-62 -60 0
-62 -61 0
62 60 61 0
-63 -52 0
-63 29 0
63 52 -29 0
-64 52 0
-64 -29 0
64 -52 29 0
-65 -63 0
-65 -64 0
65 63 64 0
-66 62 0
-66 65 0
66 -62 -65 0
-67 -53 0
-67 30 0
67 53 -30 0
-68 53 0
-68 -30 0
68 -53 30 0
-69 -67 0
-69 -68 0
69 67 68 0
-70 -54 0
-70 31 0
70 54 -31 0
-71 54 0
-71 -31 0
71 -54 31 0
-72 -70 0
-72 -71 0
72 70 71 0
-73 69 0
-73 72 0
73 -69 -72 0
-74 66 0
-74 73 0
74 -66 -73 0
-75 -57 0
-75 34 0
75 57 -34 0
-76 57 0
-76 -34 0
76 -57 34 0
-77 -75 0
-77 -76 0
77 75 76 0
-78 -55 0
-78 32 0
78 55 -32 0
-79 55 0
-79 -32 0
79 -55 32 0
-80 -78 0
-80 -79 0
80 78 79 0
-81 -56 0
-81 33 0
81 56 -33 0
-82 56 0
-82 -33 0
82 -56 33 0
-83 -81 0
-83 -82 0
83 81 82 0
-84 80 0
-84 83 0
84 -80 -83 0
-85 77 0
-85 84 0
85 -77 -84 0
-86 74 0
-86 85 0
86 -74 -85 0
-87 -35 0
-87 12 0
87 35 -12 0
-88 35 0
-88 -12 0
88 -35 12 0
-89 -87 0
-89 -88 0
89 87 88 0
-90 -36 0
-90 13 0
90 36 -13 0
-91 36 0
-91 -13 0
91 -36 13 0
-92 -90 0
-92 -91 0
92 90 91 0
-93 89 0
-93 92 0
93 -89 -92 0
-94 -37 0
-94 14 0
94 37 -14 0
-95 37 0
-95 -14 0
95 -37 14 0
-96 -94 0
-96 -95 0
96 94 95 0
-97 -38 0
-97 15 0
97 38 -15 0
-98 38 0
-98 -15 0
98 -38 15 0
-99 -97 0
-99 -98 0
99 97 98 0
-100 96 0
-100 99 0
100 -96 -99 0
-101 93 0
-101 100 0
101 -93 -100 0
-102 -39 0
-102 16 0
102 39 -16 0
-103 39 0
-103 -16 0
103 -39 16 0
-104 -102 0
-104 -103 0
104 102 103 0
-105 -40 0
-105 17 0
105 40 -17 0
-106 40 0
-106 -17 0
106 -40 17 0
-107 -105 0
-107 -106 0
107 105 106 0
-108 104 0
-108 107 0
108 -104 -107 0
-109 -41 0
-109 18 0
109 41 -18 0
-110 41 0
-110 -18 0
110 -41 18 0
-111 -109 0
-111 -110 0
111 109 110 0
-112 -42 0
-112 19 0
112 42 -19 0
-113 42 0
-113 -19 0
113 -42 19 0
-114 -112 0
-114 -113 0
114 112 113 0
-115 111 0
-115 114 0
115 -111 -114 0
-116 108 0
-116 115 0
116 -108 -115 0
-117 101 0
-117 116 0
117 -101 -116 0
-118 -43 0
-118 20 0
118 43 -20 0
-119 43 0
-119 -20 0
119 -43 20 0
-120 -118 0
-120 -119 0
120 118 119 0
-121 -44 0
-121 21 0
121 44 -21 0
-122 44 0
-122 -21 0
122 -44 21 0
-123 -121 0
-123 -122 0
123 121 122 0
-124 120 0
-124 123 0
124 -120 -123 0
-125 -45 0
-125 22 0
125 45 -22 0
-126 45 0
-126 -22 0
126 -45 22 0
-127 -125 0
-127 -126 0
127 125 126 0
-128 -46 0
-128 23 0
128 46 -23 0
-129 46 0
-129 -23 0
129 -46 23 0
-130 -128 0
-130 -129 0
130 128 129 0
-131 127 0
-131 130 0
131 -127 -130 0
-132 124 0
-132 131 0
132 -124 -131 0
-133 -47 0
-133 24 0
133 47 -24 0
-134 47 0
-134 -24 0
134 -47 24 0
-135 -133 0
-135 -134 0
135 133 134 0
-136 -48 0
-136 25 0
136 48 -25 0
-137 48 0
-137 -25 0
137 -48 25 0
-138 -136 0
-138 -137 0
138 136 137 0
-139 135 0
-139 138 0
139 -135 -138 0
-140 -49 0
-140 26 0
140 49 -26 0
-141 49 0
-141 -26 0
141 -49 26 0
-142 -140 0
-142 -141 0
142 140 141 0
-143 -50 0
-143 27 0
143 50 -27 0
-144 50 0
-144 -27 0
144 -50 27 0
-145 -143 0
-145 -144 0
145 143 144 0
-146 142 0
-146 145 0
146 -142 -145 0
-147 139 0
-147 146 0
147 -139 -146 0
-148 132 0
-148 147 0
148 -132 -147 0
-149 117 0
-149 148 0
149 -117 -148 0
-150 86 0
-150 149 0
150 -86 -149 0
-151 59 0
-151 -58 0
151 -59 58 0
-152 -59 0
-152 58 0
152 59 -58 0
-153 -151 0
-153 -152 0
153 151 152 0
-154 150 0
-154 -153 0
154 -150 153 0
-155 22 0
-155 12 0
155 -22 -12 0
-156 9 0
-156 -5 0
156 -9 5 0
-157 -9 0
-157 5 0
157 9 -5 0
-158 -156 0
-158 -157 0
158 156 157 0
-159 16 0
-159 12 0
159 -16 -12 0
-160 -158 0
-160 -159 0
160 158 159 0
-161 155 0
-161 160 0
161 -155 -160 0
-162 26 0
-162 12 0
162 -26 -12 0
-163 -22 0
-163 162 0
163 22 -162 0
-164 -161 0
-164 -163 0
164 161 163 0
-165 158 0
-165 -159 0
165 -158 159 0
-166 -164 0
-166 -165 0
166 164 165 0
-167 28 0
-167 12 0
167 -28 -12 0
-168 27 0
-168 12 0
168 -27 -12 0
-169 23 0
-169 12 0
169 -23 -12 0
-170 -3 0
-170 2 0
170 3 -2 0
-171 3 0
-171 -2 0
171 -3 2 0
-172 -170 0
-172 -171 0
172 170 171 0
-173 -169 0
-173 -172 0
173 169 172 0
-174 18 0
-174 12 0
174 -18 -12 0
-175 4 0
-175 -1 0
175 -4 1 0
-176 -4 0
-176 1 0
176 4 -1 0
-177 -175 0
-177 -176 0
177 175 176 0
-178 -174 0
-178 -177 0
178 174 177 0
-179 -173 0
-179 -178 0
179 173 178 0
-180 168 0
-180 179 0
180 -168 -179 0
-181 167 0
-181 180 0
181 -167 -180 0
-182 -167 0
-182 -180 0
182 167 180 0
183 -181 0
183 -182 0
-183 181 182 0
-184 166 0
-184 -183 0
184 -166 183 0
-185 -51 0
-185 184 0
185 51 -184 0
-186 51 0
-186 -184 0
186 -51 184 0
-187 -185 0
-187 -186 0
187 185 186 0
-188 29 0
-188 12 0
188 -29 -12 0
-189 188 0
-189 181 0
189 -188 -181 0
-190 -188 0
-190 -181 0
190 188 181 0
-191 -189 0
-191 -190 0
191 189 190 0
-192 191 0
-192 166 0
192 -191 -166 0
-193 -52 0
-193 192 0
193 52 -192 0
-194 52 0
-194 -192 0
194 -52 192 0
-195 -193 0
-195 -194 0
195 193 194 0
-196 187 0
-196 195 0
196 -187 -195 0
-197 -53 0
-197 11 0
197 53 -11 0
-198 53 0
-198 -11 0
198 -53 11 0
-199 -197 0
-199 -198 0
199 197 198 0
-200 31 0
-200 12 0
200 -31 -12 0
-201 19 0
-201 12 0
201 -19 -12 0
-202 -8 0
-202 201 0
202 8 -201 0
-203 8 0
-203 -201 0
203 -8 201 0
-204 -202 0
-204 -203 0
204 202 203 0
-205 25 0
-205 12 0
205 -25 -12 0
-206 -6 0
-206 205 0
206 6 -205 0
-207 6 0
-207 -205 0
207 -6 205 0
-208 -206 0
-208 -207 0
208 206 207 0
-209 204 0
-209 208 0
209 -204 -208 0
-210 30 0
-210 12 0
210 -30 -12 0
-211 -24 0
-211 210 0
211 24 -210 0
-212 24 0
-212 12 0
212 -24 -12 0
-213 -30 0
-213 212 0
213 30 -212 0
-214 -211 0
-214 -213 0
214 211 213 0
-215 -209 0
-215 214 0
215 209 -214 0
-216 6 0
-216 211 0
216 -6 -211 0
-217 -8 0
-217 213 0
217 8 -213 0
-218 15 0
-218 12 0
218 -15 -12 0
-219 -1 0
-219 218 0
219 1 -218 0
-220 14 0
-220 12 0
220 -14 -12 0
-221 219 0
-221 220 0
221 -219 -220 0
-222 1 0
-222 -220 0
222 -1 220 0
-223 32 0
-223 12 0
223 -32 -12 0
-224 -3 0
-224 223 0
224 3 -223 0
-225 33 0
-225 12 0
225 -33 -12 0
-226 224 0
-226 225 0
226 -224 -225 0
-227 17 0
-227 12 0
227 -17 -12 0
-228 -9 0
-228 227 0
228 9 -227 0
-229 34 0
-229 12 0
229 -34 -12 0
-230 -9 0
-230 229 0
230 9 -229 0
-231 -227 0
-231 -230 0
231 227 230 0
-232 -228 0
-232 -231 0
232 228 231 0
-233 3 0
-233 -225 0
233 -3 225 0
-234 -232 0
-234 -233 0
234 232 233 0
-235 -226 0
-235 234 0
235 226 -234 0
-236 -222 0
-236 235 0
236 222 -235 0
-237 -221 0
-237 236 0
237 221 -236 0
-238 -217 0
-238 237 0
238 217 -237 0
-239 -216 0
-239 238 0
239 216 -238 0
-240 -215 0
-240 239 0
240 215 -239 0
-241 -200 0
-241 240 0
241 200 -240 0
-242 -54 0
-242 -241 0
242 54 241 0
-243 54 0
-243 241 0
243 -54 -241 0
-244 -242 0
-244 -243 0
244 242 243 0
-245 199 0
-245 244 0
245 -199 -244 0
-246 196 0
-246 245 0
246 -196 -245 0
-247 -57 0
-247 9 0
247 57 -9 0
-248 57 0
-248 -9 0
248 -57 9 0
-249 -247 0
-249 -248 0
249 247 248 0
-250 -55 0
-250 3 0
250 55 -3 0
-251 55 0
-251 -3 0
251 -55 3 0
-252 -250 0
-252 -251 0
252 250 251 0
-253 -56 0
-253 2 0
253 56 -2 0
-254 56 0
-254 -2 0
254 -56 2 0
-255 -253 0
-255 -254 0
255 253 254 0
-256 252 0
-256 255 0
256 -252 -255 0
-257 249 0
-257 256 0
257 -249 -256 0
-258 246 0
-258 257 0
258 -246 -257 0
-259 13 0
-259 12 0
259 -13 -12 0
-260 -225 0
-260 -220 0
260 225 220 0
-261 -259 0
-261 -260 0
261 259 260 0
-262 -20 0
-262 225 0
262 20 -225 0
-263 -220 0
-263 262 0
263 220 -262 0
-264 20 0
-264 12 0
264 -20 -12 0
-265 -33 0
-265 220 0
265 33 -220 0
-266 264 0
-266 265 0
266 -264 -265 0
-267 -263 0
-267 -266 0
267 263 266 0
-268 -261 0
-268 267 0
268 261 -267 0
-269 -36 0
-269 268 0
269 36 -268 0
-270 36 0
-270 -268 0
270 -36 268 0
-271 -269 0
-271 -270 0
271 269 270 0
-272 35 0
-272 271 0
272 -35 -271 0
-273 -37 0
-273 4 0
273 37 -4 0
-274 37 0
-274 -4 0
274 -37 4 0
-275 -273 0
-275 -274 0
275 273 274 0
-276 -38 0
-276 1 0
276 38 -1 0
-277 38 0
-277 -1 0
277 -38 1 0
-278 -276 0
-278 -277 0
278 276 277 0
-279 275 0
-279 278 0
279 -275 -278 0
-280 272 0
-280 279 0
280 -272 -279 0
-281 -160 0
-281 163 0
281 160 -163 0
-282 -39 0
-282 281 0
282 39 -281 0
-283 39 0
-283 -281 0
283 -39 281 0
-284 -282 0
-284 -283 0
284 282 283 0
-285 -40 0
-285 5 0
285 40 -5 0
-286 40 0
-286 -5 0
286 -40 5 0
-287 -285 0
-287 -286 0
287 285 286 0
-288 284 0
-288 287 0
288 -284 -287 0
-289 -179 0
-289 166 0
289 179 -166 0
-290 -178 0
-290 289 0
290 178 -289 0
-291 -41 0
-291 290 0
291 41 -290 0
-292 41 0
-292 -290 0
292 -41 290 0
-293 -291 0
-293 -292 0
293 291 292 0
-294 -42 0
-294 8 0
294 42 -8 0
-295 42 0
-295 -8 0
295 -42 8 0
-296 -294 0
-296 -295 0
296 294 295 0
-297 293 0
-297 296 0
297 -293 -296 0
-298 288 0
-298 297 0
298 -288 -297 0
-299 280 0
-299 298 0
299 -280 -298 0
-300 264 0
-300 -265 0
300 -264 265 0
-301 -263 0
-301 -300 0
301 263 300 0
-302 -43 0
-302 -301 0
302 43 301 0
-303 43 0
-303 301 0
303 -43 -301 0
-304 -302 0
-304 -303 0
304 302 303 0
-305 -44 0
-305 7 0
305 44 -7 0
-306 44 0
-306 -7 0
306 -44 7 0
-307 -305 0
-307 -306 0
307 305 306 0
-308 304 0
-308 307 0
308 -304 -307 0
-309 160 0
-309 -163 0
309 -160 163 0
-310 -45 0
-310 309 0
310 45 -309 0
-311 45 0
-311 -309 0
311 -45 309 0
-312 -310 0
-312 -311 0
312 310 311 0
-313 -173 0
-313 289 0
313 173 -289 0
-314 -46 0
-314 313 0
314 46 -313 0
-315 46 0
-315 -313 0
315 -46 313 0
-316 -314 0
-316 -315 0
316 314 315 0
-317 312 0
-317 316 0
317 -312 -316 0
-318 308 0
-318 317 0
318 -308 -317 0
-319 -47 0
-319 10 0
319 47 -10 0
-320 47 0
-320 -10 0
320 -47 10 0
-321 -319 0
-321 -320 0
321 319 320 0
-322 -48 0
-322 6 0
322 48 -6 0
-323 48 0
-323 -6 0
323 -48 6 0
-324 -322 0
-324 -323 0
324 322 323 0
-325 321 0
-325 324 0
325 -321 -324 0
-326 -201 0
-326 -162 0
326 201 162 0
-327 -210 0
-327 -326 0
327 210 326 0
-328 -49 0
-328 327 0
328 49 -327 0
-329 49 0
-329 -327 0
329 -49 327 0
-330 -328 0
-330 -329 0
330 328 329 0
-331 -168 0
-331 -179 0
331 168 179 0
-332 -180 0
-332 -331 0
332 180 331 0
-333 166 0
-333 332 0
333 -166 -332 0
-334 -50 0
-334 333 0
334 50 -333 0
-335 50 0
-335 -333 0
335 -50 333 0
-336 -334 0
-336 -335 0
336 334 335 0
-337 330 0
-337 336 0
337 -330 -336 0
-338 325 0
-338 337 0
338 -325 -337 0
-339 318 0
-339 338 0
339 -318 -338 0
-340 299 0
-340 339 0
340 -299 -339 0
-341 258 0
-341 340 0
341 -258 -340 0
-342 341 0
-342 152 0
342 -341 -152 0
-343 11 0
-343 -8 0
343 -11 8 0
-344 -11 0
-344 6 0
344 11 -6 0
-345 10 0
-345 344 0
345 -10 -344 0
-346 -219 0
-346 -224 0
346 219 224 0
-347 -11 0
-347 -346 0
347 11 346 0
-348 10 0
-348 -7 0
348 -10 7 0
-349 5 0
-349 -227 0
349 -5 227 0
-350 -348 0
-350 349 0
350 348 -349 0
-351 -4 0
-351 -218 0
351 4 218 0
-352 -351 0
-352 -225 0
352 351 225 0
-353 -20 0
-353 259 0
353 20 -259 0
-354 352 0
-354 -353 0
354 -352 353 0
-355 -2 0
-355 -223 0
355 2 223 0
-356 20 0
-356 259 0
356 -20 -259 0
-357 -355 0
-357 -356 0
357 355 356 0
-358 225 0
-358 -357 0
358 -225 357 0
-359 -358 0
-359 -220 0
359 358 220 0
-360 -354 0
-360 -359 0
360 354 359 0
-361 17 0
-361 229 0
361 -17 -229 0
-362 -5 0
-362 -361 0
362 5 361 0
-363 -229 0
-363 -228 0
363 229 228 0
-364 5 0
-364 -363 0
364 -5 363 0
-365 -362 0
-365 -364 0
365 362 364 0
-366 -360 0
-366 -365 0
366 360 365 0
-367 2 0
-367 223 0
367 -2 -223 0
-368 366 0
-368 -367 0
368 -366 367 0
-369 -2 0
-369 -218 0
369 2 218 0
-370 4 0
-370 -369 0
370 -4 369 0
-371 368 0
-371 -370 0
371 -368 370 0
-372 -350 0
-372 371 0
372 350 -371 0
-373 10 0
-373 -349 0
373 -10 349 0
-374 372 0
-374 -373 0
374 -372 373 0
-375 -347 0
-375 374 0
375 347 -374 0
-376 11 0
-376 346 0
376 -11 -346 0
-377 375 0
-377 -376 0
377 -375 376 0
-378 -345 0
-378 377 0
378 345 -377 0
-379 -343 0
-379 378 0
379 343 -378 0
-380 -188 0
-380 379 0
380 188 -379 0
-381 -380 0
-381 241 0
381 380 -241 0
-382 58 0
-382 381 0
382 -58 -381 0
-383 -29 0
-383 -28 0
383 29 28 0
-384 -31 0
-384 -30 0
384 31 30 0
-385 383 0
-385 384 0
385 -383 -384 0
-386 -33 0
-386 -32 0
386 33 32 0
-387 -34 0
-387 386 0
387 34 -386 0
-388 385 0
-388 387 0
388 -385 -387 0
-389 -13 0
-389 -12 0
389 13 12 0
-390 -15 0
-390 -14 0
390 15 14 0
-391 389 0
-391 390 0
391 -389 -390 0
-392 -17 0
-392 -16 0
392 17 16 0
-393 -19 0
-393 -18 0
393 19 18 0
-394 392 0
-394 393 0
394 -392 -393 0
-395 391 0
-395 394 0
395 -391 -394 0
-396 -21 0
-396 -20 0
396 21 20 0
-397 -23 0
-397 -22 0
397 23 22 0
-398 396 0
-398 397 0
398 -396 -397 0
-399 -25 0
-399 -24 0
399 25 24 0
-400 -27 0
-400 -26 0
400 27 26 0
-401 399 0
-401 400 0
401 -399 -400 0
-402 398 0
-402 401 0
402 -398 -401 0
-403 395 0
-403 402 0
403 -395 -402 0
-404 388 0
-404 403 0
404 -388 -403 0
-405 -58 0
-405 404 0
405 58 -404 0
-406 -382 0
-406 -405 0
406 382 405 0
-407 -342 0
-407 406 0
407 342 -406 0
-408 -154 0
-408 407 0
408 154 -407 0
408 0
